row=8;
column=8;
left=[3, 2, 0, 5, 0, 0, 0, 0];
right=[0, 0, 3, 0, 0, 0, 0, 0];
top=[4, 2, 1, 2, 0, 0, 0, 0];
bottom=[2, 0, 0, 0, 0, 0, 0, 0];
Board=[|0,0,8,0,0,7,0,1|0,0,7,0,0,0,4,0|5,0,4,0,0,0,0,0|1,2,0,7,6,8,0,0|0,0,6,5,4,0,0,7|7,0,0,4,0,5,2,6|8,0,1,6,0,0,0,0|4,0,0,0,0,6,7,8|]